; benchmark generated from python API
(set-info :status unknown)
(declare-datatypes ((IntState 0)) (((Mk1 (val1 Int)) (Mk2 (val2 Int)))))
 (declare-fun c_main_~i~6 () Int)
(declare-fun c_main_~j~6 () Int)
(declare-fun c_main_~k~6 () Int)
(assert
 (let (($x29 (<= c_main_~j~6 (+ (* 2 c_main_~i~6) 1))))
 (let (($x124 (<= c_main_~j~6 (+ (* 2 c_main_~i~6) 2))))
 (let (($x67 (<= c_main_~i~6 3)))
 (let (($x70 (exists ((main_~i~6_st IntState) (val!174 Int) )(let ((?x56 (val2 main_~i~6_st)))
 (let (($x74 (<= ?x56 3)))
 (let (($x40 (and (<= c_main_~j~6 (+ (* 2 ?x56) 2)) $x74 (<= ?x56 c_main_~k~6))))
 (let (($x52 (not (= main_~i~6_st (Mk1 val!174)))))
 (and $x52 $x40))))))
 ))
 (let (($x153 (<= c_main_~i~6 2)))
 (let ((?x35 (* 2 c_main_~i~6)))
 (let (($x84 (<= c_main_~j~6 ?x35)))
 (let (($x104 (exists ((main_~i~6 Int) )(let (($x63 (<= main_~i~6 3)))
 (and (<= c_main_~j~6 (+ (* 2 main_~i~6) 2)) $x63 (<= main_~i~6 c_main_~k~6))))
 ))
 (let (($x30 (<= c_main_~i~6 1)))
 (and (and $x30 $x153 $x104 $x84 $x67 $x124 $x29) (not (and $x153 $x70 $x67 $x124 $x29)))))))))))))
(check-sat)
